Version identifier: 20.1.0.0 | 2020-11-10 | 9bedb6d68
Tried aggregator 2 times.
MIP Presolve eliminated 1698 rows and 928 columns.
MIP Presolve modified 3444 coefficients.
Aggregator did 184 substitutions.
Reduced MIP has 1524 rows, 1295 columns, and 4857 nonzeros.
Reduced MIP has 409 binaries, 886 generals, 0 SOSs, and 0 indicators.
Presolve time = 0.02 sec. (7.72 ticks)
Found incumbent of value 49.000000 after 0.03 sec. (13.45 ticks)
Probing fixed 40 vars, tightened 329 bounds.
Probing time = 0.00 sec. (1.79 ticks)
Tried aggregator 2 times.
Detecting symmetries...
MIP Presolve eliminated 604 rows and 48 columns.
MIP Presolve modified 107 coefficients.
Aggregator did 5 substitutions.
Reduced MIP has 915 rows, 1242 columns, and 2986 nonzeros.
Reduced MIP has 606 binaries, 636 generals, 0 SOSs, and 0 indicators.
Presolve time = 0.01 sec. (4.53 ticks)
Probing time = 0.00 sec. (0.30 ticks)
Clique table members: 81.
MIP emphasis: balance optimality and feasibility.
MIP search method: dynamic search.
Parallel mode: deterministic, using up to 24 threads.
Root relaxation solution time = 0.01 sec. (3.39 ticks)

        Nodes                                         Cuts/
   Node  Left     Objective  IInf  Best Integer    Best Bound    ItCnt     Gap

*     0+    0                           49.0000        0.0000           100.00%
      0     0        0.0000    62       49.0000        0.0000      296  100.00%
*     0+    0                           19.0000        0.0000           100.00%
      0     0        0.0000    70       19.0000     Cuts: 240      487  100.00%
      0     0        0.0000    86       19.0000      Cuts: 42      622  100.00%
*     0+    0                           10.0000        0.0000           100.00%
*     0+    0                            8.0000        0.0000           100.00%
      0     0        cutoff              8.0000        8.0000      622    0.00%
Elapsed time = 0.43 sec. (94.02 ticks, tree = 0.01 MB, solutions = 4)

Implied bound cuts applied:  62
Mixed integer rounding cuts applied:  8
Zero-half cuts applied:  48
Gomory fractional cuts applied:  35

Root node processing (before b&c):
  Real time             =    0.43 sec. (94.15 ticks)
Parallel b&c, 24 threads:
  Real time             =    0.00 sec. (0.00 ticks)
  Sync time (average)   =    0.00 sec.
  Wait time (average)   =    0.00 sec.
                          ------------
Total (root+branch&cut) =    0.43 sec. (94.15 ticks)

Solution status = Optimal
Solution LB = 8
Solution UB = 8
Runtime = 0.438833 seconds
	Command being timed: "/home/min/git_repos/CS598MEBProject/CNT-ILP/build/cnt -s 2 ./output/k6_n40/simC_c1_k6_n40_u2_s2_del04.input-left.cnp"
	User time (seconds): 6.20
	System time (seconds): 0.07
	Percent of CPU this job got: 1296%
	Elapsed (wall clock) time (h:mm:ss or m:ss): 0:00.48
	Average shared text size (kbytes): 0
	Average unshared data size (kbytes): 0
	Average stack size (kbytes): 0
	Average total size (kbytes): 0
	Maximum resident set size (kbytes): 86100
	Average resident set size (kbytes): 0
	Major (requiring I/O) page faults: 0
	Minor (reclaiming a frame) page faults: 18351
	Voluntary context switches: 3523
	Involuntary context switches: 732
	Swaps: 0
	File system inputs: 0
	File system outputs: 16
	Socket messages sent: 0
	Socket messages received: 0
	Signals delivered: 0
	Page size (bytes): 4096
	Exit status: 0
